This is Ipopt version 3.14.19, running with linear solver MUMPS 5.6.2.

Number of nonzeros in equality constraint Jacobian...:        0
Number of nonzeros in inequality constraint Jacobian.:        0
Number of nonzeros in Lagrangian Hessian.............:        0

Total number of variables............................:        4
                     variables with only lower bounds:        0
                variables with lower and upper bounds:        4
                     variables with only upper bounds:        0
Total number of equality constraints.................:        0
Total number of inequality constraints...............:        0
        inequality constraints with only lower bounds:        0
   inequality constraints with lower and upper bounds:        0
        inequality constraints with only upper bounds:        0

iter    objective    inf_pr   inf_du lg(mu)  ||d||  lg(rg) alpha_du alpha_pr  ls
   0  6.5897545e-22 0.00e+00 2.99e+00   0.0 0.00e+00    -  0.00e+00 0.00e+00   0
   1  3.4620831e-22 0.00e+00 5.37e-01  -0.6 2.66e-01    -  9.98e-01 3.72e-01f  2
   2  1.8440813e-22 0.00e+00 3.23e-02  -1.9 6.87e-02    -  9.95e-01 1.00e+00f  1
   3  1.1130345e-22 0.00e+00 8.91e-02  -3.6 3.84e-02    -  9.88e-01 1.00e+00f  1
   4  9.7791525e-23 0.00e+00 3.70e-02  -4.6 1.34e-02    -  1.00e+00 1.00e+00f  1
   5  9.6635519e-23 0.00e+00 4.20e-02  -5.7 2.00e-02    -  1.00e+00 9.54e-01f  1
   6  9.3169463e-23 0.00e+00 1.40e-01  -6.4 2.28e-01    -  1.00e+00 9.68e-01f  1
   7  9.2976110e-23 0.00e+00 3.43e-02  -7.9 8.05e-02    -  1.00e+00 6.25e-02f  5
   8  9.2975758e-23 0.00e+00 1.09e-02  -8.3 4.72e-02    -  1.00e+00 1.20e-04f 14
   9  9.2975334e-23 0.00e+00 1.08e-02  -8.9 4.73e-02    -  1.00e+00 2.42e-04f 13
iter    objective    inf_pr   inf_du lg(mu)  ||d||  lg(rg) alpha_du alpha_pr  ls
  10  9.2975084e-23 0.00e+00 1.10e-02  -8.9 4.75e-02    -  1.00e+00 6.05e-05f 15
  11  9.2974896e-23 0.00e+00 8.89e-03  -8.9 8.89e-03    -  1.00e+00 2.40e-04f 13
  12  9.2958657e-23 0.00e+00 8.80e-03  -8.7 2.81e-03    -  1.00e+00 1.25e-01f  4
  13  9.2939862e-23 0.00e+00 1.55e-02  -8.6 2.83e-02    -  1.00e+00 1.25e-01f  4
  14  9.2934334e-23 0.00e+00 2.02e-02  -9.1 3.13e-02    -  1.00e+00 2.49e-01f  3
  15  9.2904186e-23 0.00e+00 1.09e-02  -9.2 6.10e-02    -  1.00e+00 3.07e-02f  6
  16  8.9851425e-23 0.00e+00 2.30e-01  -9.2 4.25e-01    -  1.00e+00 1.00e+00f  1
  17  8.7367275e-23 0.00e+00 5.75e-02  -9.2 7.32e-01    -  1.00e+00 8.90e-01f  1
  18  8.7198247e-23 0.00e+00 2.39e-02 -10.0 2.04e-01    -  1.00e+00 4.93e-01f  2
  19  8.7195547e-23 0.00e+00 1.48e-02 -10.8 9.57e-02    -  1.00e+00 9.57e-01f  1
iter    objective    inf_pr   inf_du lg(mu)  ||d||  lg(rg) alpha_du alpha_pr  ls
  20  8.7040736e-23 0.00e+00 1.66e-02 -11.0 3.35e-02    -  1.00e+00 1.00e+00f  1
  21  8.6272450e-23 0.00e+00 2.88e-02 -11.0 6.90e-02    -  1.00e+00 1.00e+00f  1
  22  8.5427673e-23 0.00e+00 8.02e-01 -10.6 2.51e+00    -  1.00e+00 6.87e-01f  1
  23  8.0956114e-23 0.00e+00 4.87e-02 -11.0 4.81e-01    -  1.00e+00 5.87e-01f  1
  24  8.0303359e-23 0.00e+00 5.41e-02  -9.9 9.04e-01    -  1.00e+00 5.00e-01f  2
  25  7.9676720e-23 0.00e+00 1.25e-02 -10.5 1.94e-01    -  1.00e+00 1.00e+00f  1
  26  7.8081335e-23 0.00e+00 3.64e-02 -11.0 6.43e-01    -  1.00e+00 1.00e+00f  1
  27  7.6664204e-23 0.00e+00 1.65e-02 -11.0 1.80e-01    -  1.00e+00 1.00e+00f  1
  28  7.5190220e-23 0.00e+00 3.45e-02 -11.0 1.91e-01    -  1.00e+00 1.00e+00f  1
  29  7.2876045e-23 0.00e+00 1.05e-02 -11.0 3.78e-01    -  1.00e+00 1.00e+00f  1
iter    objective    inf_pr   inf_du lg(mu)  ||d||  lg(rg) alpha_du alpha_pr  ls
  30  7.2851353e-23 0.00e+00 9.89e-01  -9.0 7.35e+01    -  2.89e-01 6.58e-04f  1
  31  7.2848391e-23 0.00e+00 4.68e-02  -9.8 8.57e-01    -  1.00e+00 2.82e-04f  2
  32  7.2847356e-23 0.00e+00 6.30e-03 -11.0 1.12e-02    -  1.00e+00 4.11e-04f  7
  33  7.2847009e-23 0.00e+00 5.37e-03 -11.0 6.46e-04    -  1.00e+00 3.91e-03f  9
  34  7.2841204e-23 0.00e+00 1.26e-02 -11.0 6.71e-03    -  1.00e+00 1.01e-01f  1
  35  7.2800836e-23 0.00e+00 1.24e-02 -11.0 6.80e-03    -  1.00e+00 7.98e-01f  1
  36  7.2771395e-23 0.00e+00 2.78e-02 -11.0 1.39e-02    -  1.00e+00 1.00e+00f  1
  37  7.2723861e-23 0.00e+00 3.72e-03 -11.0 3.69e-03    -  1.00e+00 1.00e+00f  1
  38  7.2646983e-23 0.00e+00 2.45e-03 -11.0 3.72e-03    -  1.00e+00 1.00e+00f  1
  39  7.2598809e-23 0.00e+00 3.57e-03 -11.0 7.21e-03    -  1.00e+00 1.00e+00f  1
iter    objective    inf_pr   inf_du lg(mu)  ||d||  lg(rg) alpha_du alpha_pr  ls
  40  7.2598809e-23 0.00e+00 7.28e-04 -11.0 1.33e-03    -  1.00e+00 9.09e-13f 41

Number of Iterations....: 40

                                   (scaled)                 (unscaled)
Objective...............:   1.1016921663783052e-01    7.2598809193861830e-23
Dual infeasibility......:   7.2817672836848052e-04    4.7985058781003320e-25
Constraint violation....:   0.0000000000000000e+00    0.0000000000000000e+00
Variable bound violation:   3.3734582682853897e-08    3.3734582682853897e-08
Complementarity.........:   1.0018388954156059e-11    6.6018723769604845e-33
Overall NLP error.......:   7.2817672836848052e-04    4.7985058781003320e-25


Number of objective function evaluations             = 231
Number of objective gradient evaluations             = 41
Number of equality constraint evaluations            = 0
Number of inequality constraint evaluations          = 0
Number of equality constraint Jacobian evaluations   = 0
Number of inequality constraint Jacobian evaluations = 0
Number of Lagrangian Hessian evaluations             = 0
Total seconds in IPOPT                               = 1084.165

EXIT: Maximum Number of Iterations Exceeded.
